20
2 0 5
3 0 3
3 2 4
4 1 3
5 1 5
5 3 1
5 4 11
6 1 5
6 3 8
6 4 11
6 5 6
7 2 7
7 6 11
8 1 7
8 2 10
8 3 10
8 5 2
8 6 9
8 7 3
9 0 5
9 1 2
9 2 3
9 4 5
9 5 9
9 6 10
9 8 4
10 1 10
11 6 9
11 7 9
11 8 4
11 9 10
12 1 2
12 3 8
12 5 5
12 9 3
12 10 7
13 1 8
13 2 12
13 3 11
13 6 1
13 8 12
13 12 10
14 0 8
14 3 7
14 5 5
14 6 6
14 7 2
14 8 1
14 10 8
14 12 11
15 0 12
15 10 4
16 1 5
16 2 7
16 4 12
16 5 10
16 6 2
16 8 9
16 9 6
16 12 8
16 14 2
17 0 10
17 1 12
17 2 12
17 8 8
17 9 9
17 12 6
17 13 12
17 14 11
17 16 5
18 0 2
18 2 8
18 4 5
18 5 2
18 6 8
18 7 9
18 8 8
18 9 8
18 13 7
18 14 11
18 17 1
19 2 9
19 6 12
19 8 8
19 9 5
19 11 12
19 12 9
19 14 11
19 16 9
19 17 10
